c SAT Generator for power-law distributed variable frequencies
c -g u -v 20 -c 91 -k 3 -p 2.750000 -b 3.200000 -f /home/schmidt/Devel/ni-kop-sat/data/ensemble/ruf20-91/ruf20-91-649 -u 1 -U 1 -s 1901339267
p cnf 20 91
3 8 15 0
2 -7 15 0
16 19 20 0
1 -4 -7 0
3 -8 10 0
2 -9 10 0
7 -13 20 0
7 -10 20 0
-1 -2 -17 0
5 -9 -16 0
4 11 16 0
-3 -9 -17 0
14 16 18 0
8 -10 19 0
3 4 9 0
-3 9 16 0
-2 -11 16 0
-4 14 -17 0
5 14 -18 0
4 -10 12 0
-2 10 -14 0
4 15 20 0
-1 -2 -5 0
-8 -14 -20 0
9 -10 -13 0
-3 -14 -15 0
-7 -9 20 0
-4 -8 12 0
11 -13 -20 0
4 -9 -14 0
-9 13 -19 0
2 -3 12 0
-2 -7 14 0
2 5 16 0
6 8 -12 0
2 4 -9 0
3 8 -10 0
2 -7 16 0
-2 -5 10 0
-7 -9 17 0
6 -17 20 0
10 11 -18 0
8 -13 -19 0
4 7 -9 0
3 -7 -18 0
-1 -5 18 0
-2 -6 -13 0
-5 11 -14 0
-1 2 6 0
5 8 -10 0
-4 5 12 0
4 7 -12 0
2 -11 17 0
3 9 -18 0
5 -11 -17 0
-10 12 -14 0
6 17 19 0
8 13 -20 0
-7 -11 13 0
4 10 14 0
5 -6 -19 0
-5 12 16 0
-3 -9 18 0
13 17 -19 0
3 -8 -19 0
-1 -3 6 0
-5 -6 -9 0
3 5 12 0
-1 11 15 0
2 7 -8 0
1 15 -20 0
1 7 -11 0
2 -10 -18 0
-4 12 17 0
4 7 15 0
4 -13 -18 0
-3 -6 -8 0
-9 -13 -19 0
-14 -19 -20 0
-1 -3 -20 0
-3 -15 -18 0
-1 -4 9 0
8 11 -14 0
-5 10 15 0
-6 7 14 0
6 9 -13 0
-10 13 16 0
-8 -9 20 0
-4 -5 14 0
8 14 -16 0
-2 -7 13 0
